NAME : rnd16_20.tsp
TYPE : TSP
DIMENSION : 20
EDGE_WEIGHT_TYPE : EUC_2D
NODE_COORD_SECTION
0 735 233
1 351 425
2 627 519
3 949 61
4 709 560
5 841 447
6 969 685
7 873 951
8 343 328
9 736 258
10 941 160
11 990 244
12 571 77
13 6 787
14 440 365
15 792 729
16 292 3
17 661 776
18 6 67
19 105 281
